p ocr 1596 1542 3137
1541 2406
1541 2605
2 2406
3 2406
4 2406
5 2406
6 2406
7 2406
8 2406
9 2406
10 2406
11 2406
12 2406
13 2406
14 2406
15 2406
16 2406
17 2406
18 2406
19 2406
20 2406
21 2406
22 2406
23 2406
24 2406
25 2406
26 2406
27 2406
28 2406
29 2406
30 2406
31 2406
32 2406
33 2406
34 2406
35 2406
36 2406
37 2406
38 2406
39 2406
40 2406
41 2406
42 2406
43 2406
44 2406
45 2406
46 2406
47 2406
48 2406
49 2406
50 2406
51 2406
52 2406
53 2406
54 2406
55 2406
56 2406
57 2406
58 2406
59 2406
60 2406
61 2406
62 2406
63 2406
64 2406
65 2406
66 2406
67 2406
68 2406
69 2406
70 2406
71 2406
72 2406
73 2406
74 2406
75 2406
76 2406
77 2406
78 2406
79 2406
80 2406
81 2406
82 2406
83 2406
84 2406
85 2406
86 2406
87 2406
88 2406
89 2406
90 2406
91 2406
92 2406
93 2406
94 2406
95 2406
96 2406
97 2406
98 2406
99 2406
100 2406
101 2406
102 2406
103 2406
104 2406
105 2406
106 2406
107 2406
108 2406
109 2406
110 2406
111 2406
112 2406
113 2406
114 2406
115 2406
116 2406
117 2406
118 2406
119 2406
120 2406
121 2406
122 2406
123 2406
124 2406
125 2406
126 2406
127 2406
128 2406
129 2406
130 2406
131 2406
132 2406
133 2406
134 2406
135 2406
136 2406
137 2406
138 2406
139 2406
140 2406
141 2406
142 2406
143 2406
144 2406
145 2406
146 2406
147 2406
148 2406
149 2406
150 2406
151 2406
152 2406
153 2406
154 2406
155 2406
156 2406
157 2406
158 2406
159 2406
160 2406
161 2406
162 2406
163 2406
164 2406
165 2406
166 2406
167 2406
168 2406
169 2406
170 2406
171 2406
172 2406
173 2406
174 2406
175 2406
176 2406
177 2406
178 2406
179 2406
180 2406
181 2406
182 2406
183 2406
184 2406
185 2406
186 2406
187 2406
188 2406
189 2406
190 2406
191 2406
192 2406
193 2406
194 2406
195 2406
196 2406
197 2406
198 2406
199 2406
200 2406
201 2406
202 2406
203 2406
204 2406
205 2406
206 2406
207 2406
208 2406
209 2406
210 2406
211 2406
212 2406
213 2406
214 2406
215 2406
216 2406
217 2406
218 2406
219 2406
220 2406
221 2406
222 2406
223 2406
224 2406
225 2406
226 2406
227 2406
228 2406
229 2406
230 2406
231 2406
232 2406
233 2406
234 2406
235 2406
236 2406
237 2406
238 2406
239 2406
240 2406
241 2406
242 2406
243 2406
244 2406
245 2406
246 2406
247 2406
248 2406
249 2406
250 2406
251 2406
252 2406
253 2406
254 2406
255 2406
256 2406
257 2406
258 2406
259 2406
260 2406
261 2406
262 2406
263 2406
264 2406
265 2406
266 2406
267 2406
268 2406
269 2406
270 2406
271 2406
272 2406
273 2406
274 2406
275 2406
276 2406
277 2406
278 2406
279 2406
280 2406
281 2406
282 2406
283 2406
284 2406
285 2406
286 2406
287 2406
288 2406
289 2406
290 2406
291 2406
292 2406
293 2406
294 2406
295 2406
296 2406
297 2406
298 2406
299 2406
300 2406
301 2406
302 2406
303 2406
304 2406
305 2406
306 2406
307 2406
308 2406
309 2406
310 2406
311 2406
312 2406
313 2406
314 2406
315 2406
316 2406
317 2406
318 2406
319 2406
320 2406
321 2406
322 2406
323 2406
324 2406
325 2406
326 2406
327 2406
328 2406
329 2406
330 2406
331 2406
332 2406
333 2406
334 2406
335 2406
336 2406
337 2406
338 2406
339 2406
340 2406
341 2406
342 2406
343 2406
344 2406
345 2406
346 2406
347 2406
348 2406
349 2406
350 2406
351 2406
352 2406
353 2406
354 2406
355 2406
356 2406
357 2406
358 2406
359 2406
360 2406
361 2406
362 2406
363 2406
364 2406
365 2406
366 2406
367 2406
368 2406
369 2406
370 2406
371 2406
372 2406
373 2406
374 2406
375 2406
376 2406
377 2406
378 2406
379 2406
380 2406
381 2406
382 2406
383 2406
384 2406
385 2406
386 2406
387 2406
388 2406
389 2406
390 2406
391 2406
392 2406
393 2406
394 2406
395 2406
396 2406
397 2406
398 2406
399 2406
400 2406
401 2406
402 2406
403 2406
404 2406
405 2406
406 2406
407 2406
408 2406
409 2406
410 2406
411 2406
412 2406
413 2406
414 2406
415 2406
416 2406
417 2406
418 2406
419 2406
420 2406
421 2406
422 2406
423 2406
424 2406
425 2406
426 2406
427 2406
428 2406
429 2406
430 2406
431 2406
432 2406
433 2406
434 2406
435 2406
436 2406
437 2406
438 2406
439 2406
440 2406
441 2406
442 2406
443 2406
444 2406
445 2406
446 2406
447 2406
448 2406
449 2406
450 2406
451 2406
452 2406
453 2406
454 2406
455 2406
456 2406
457 2406
458 2406
459 2406
460 2406
461 2406
462 2406
463 2406
464 2406
465 2406
466 2406
467 2406
468 2406
469 2406
470 2406
471 2406
472 2406
473 2406
474 2406
475 2406
476 2406
477 2406
478 2406
479 2406
480 2406
481 2406
482 2406
483 2406
484 2406
485 2406
486 2406
487 2406
488 2406
489 2406
490 2406
491 2406
492 2406
493 2406
494 2406
495 2406
496 2406
497 2406
498 2406
499 2406
500 2406
501 2406
502 2406
503 2406
504 2406
505 2406
506 2406
507 2406
508 2406
509 2406
510 2406
511 2406
512 2406
513 2406
514 2406
515 2406
516 2406
517 2406
518 2406
519 2406
520 2406
521 2406
522 2406
523 2406
524 2406
525 2406
526 2406
527 2406
528 2406
529 2406
530 2406
531 2406
532 2406
533 2406
534 2406
535 2406
536 2406
537 2406
538 2406
539 2406
540 2406
541 2406
542 2406
543 2406
544 2406
545 2406
546 2406
547 2406
548 2406
549 2406
550 2406
551 2406
552 2406
553 2406
554 2406
555 2406
556 2406
557 2406
558 2406
559 2406
560 2406
561 2406
562 2406
563 2406
564 2406
565 2406
566 2406
567 2406
568 2406
569 2406
570 2406
571 2406
572 2406
573 2406
574 2406
575 2406
576 2406
577 2406
578 2406
579 2406
580 2406
581 2406
582 2406
583 2406
584 2406
585 2406
586 2406
587 2406
588 2406
589 2406
590 2406
591 2406
592 2406
593 2406
594 2406
595 2406
596 2406
597 2406
598 2406
599 2406
600 2406
601 2406
602 2406
603 2406
604 2406
605 2406
606 2406
607 2406
608 2406
609 2406
610 2406
611 2406
612 2406
613 2406
614 2406
615 2406
616 2406
617 2406
618 2406
619 2406
620 2406
621 2406
622 2406
623 2406
624 2406
625 2406
626 2406
627 2406
628 2406
629 2406
630 2406
631 2406
632 2406
633 2406
634 2406
635 2406
636 2406
637 2406
638 2406
639 2406
640 2406
641 2406
642 2406
643 2406
644 2406
645 2406
646 2406
647 2406
648 2406
649 2406
650 2406
651 2406
652 2406
653 2406
654 2406
655 2406
656 2406
657 2406
658 2406
659 2406
660 2406
661 2406
662 2406
663 2406
664 2406
665 2406
666 2406
667 2406
668 2406
669 2406
670 2406
671 2406
672 2406
673 2406
674 2406
675 2406
676 2406
677 2406
678 2406
679 2406
680 2406
681 2406
682 2406
683 2406
684 2406
685 2406
686 2406
687 2406
688 2406
689 2406
690 2406
691 2406
692 2406
693 2406
694 2406
695 2406
696 2406
697 2406
698 2406
699 2406
700 2406
701 2406
702 2406
703 2406
704 2406
705 2406
706 2406
707 2406
708 2406
709 2406
710 2406
711 2406
712 2406
713 2406
714 2406
715 2406
716 2406
717 2406
718 2406
719 2406
720 2406
721 2406
722 2406
723 2406
724 2406
725 2406
726 2406
727 2406
728 2406
729 2406
730 2406
731 2406
732 2406
733 2406
734 2406
735 2406
736 2406
737 2406
738 2406
739 2406
740 2406
741 2406
742 2406
743 2406
744 2406
745 2406
746 2406
747 2406
748 2406
749 2406
750 2406
751 2406
752 2406
753 2406
754 2406
755 2406
756 2406
757 2406
758 2406
759 2406
760 2406
761 2406
762 2406
763 2406
764 2406
765 2406
766 2406
767 2406
768 2406
769 2406
770 2406
771 2406
772 2406
773 2406
774 2406
775 2406
776 2406
777 2406
778 2406
779 2406
780 2406
781 2406
782 2406
783 2406
784 2406
785 2406
786 2406
787 2406
788 2406
789 2406
790 2406
791 2406
792 2406
793 2406
794 2406
795 2406
796 2406
797 2406
798 2406
799 2406
800 2406
801 2406
802 2406
803 2406
804 2406
805 2406
806 2406
807 2406
808 2406
809 2406
810 2406
811 2406
812 2406
813 2406
814 2406
815 2406
816 2406
817 2406
818 2406
819 2406
820 2406
821 2406
822 2406
823 2406
824 2406
825 2406
826 2406
827 2406
828 2406
829 2406
830 2406
831 2406
832 2406
833 2406
834 2406
835 2406
836 2406
837 2406
838 2406
839 2406
840 2406
841 2406
842 2406
843 2406
844 2406
845 2406
846 2406
847 2406
848 2406
849 2406
850 2406
851 2406
852 2406
853 2406
854 2406
855 2406
856 2406
857 2406
858 2406
859 2406
860 2406
861 2406
862 2406
863 2406
864 2406
865 2406
866 2406
867 2406
868 2406
869 2406
870 2406
871 2406
872 2406
873 2406
874 2406
875 2406
876 2406
877 2406
878 2406
879 2406
880 2406
881 2406
882 2406
883 2406
884 2406
885 2406
886 2406
887 2406
888 2406
889 2406
890 2406
891 2406
892 2406
893 2406
894 2406
895 2406
896 2406
897 2406
898 2406
899 2406
900 2406
901 2406
902 2406
903 2406
904 2406
905 2406
906 2406
907 2406
908 2406
909 2406
910 2406
911 2406
912 2406
913 2406
914 2406
915 2406
916 2406
917 2406
918 2406
919 2406
920 2406
921 2406
922 2406
923 2406
924 2406
925 2406
926 2406
927 2406
928 2406
929 2406
930 2406
931 2406
932 2406
933 2406
934 2406
935 2406
936 2406
937 2406
938 2406
939 2406
940 2406
941 2406
942 2406
943 2406
944 2406
945 2406
946 2406
947 2406
948 2406
949 2406
950 2406
951 2406
952 2406
953 2406
954 2406
955 2406
956 2406
957 2406
958 2406
959 2406
960 2406
961 2406
962 2406
963 2406
964 2406
965 2406
966 2406
967 2406
968 2406
969 2406
970 2406
971 2406
972 2406
973 2406
974 2406
975 2406
976 2406
977 2406
978 2406
979 2406
980 2406
981 2406
982 2406
983 2406
984 2406
985 2406
986 2406
987 2406
988 2406
989 2406
990 2406
991 2406
992 2406
993 2406
994 2406
995 2406
996 2406
997 2406
998 2406
999 2406
1000 2406
1001 2406
1002 2406
1003 2406
1004 2406
1005 2406
1006 2406
1007 2406
1008 2406
1009 2406
1010 2406
1011 2406
1012 2406
1013 2406
1014 2406
1015 2406
1016 2406
1017 2406
1018 2406
1019 2406
1020 2406
1021 2406
1022 2406
1023 2406
1024 2406
1025 2406
1026 2406
1027 2406
1028 2406
1029 2406
1030 2406
1031 2406
1032 2406
1033 2406
1034 2406
1035 2406
1036 2406
1037 2406
1038 2406
1039 2406
1040 2406
1041 2406
1042 2406
1043 2406
1044 2406
1045 2406
1046 2406
1047 2406
1048 2406
1049 2406
1050 2406
1051 2406
1052 2406
1053 2406
1054 2406
1055 2406
1056 2406
1057 2406
1058 2406
1059 2406
1060 2406
1061 2406
1062 2406
1063 2406
1064 2406
1065 2406
1066 2406
1067 2406
1068 2406
1069 2406
1070 2406
1071 2406
1072 2406
1073 2406
1074 2406
1075 2406
1076 2406
1077 2406
1078 2406
1079 2406
1080 2406
1081 2406
1082 2406
1083 2406
1084 2406
1085 2406
1086 2406
1087 2406
1088 2406
1089 2406
1090 2406
1091 2406
1092 2406
1093 2406
1094 2406
1095 2406
1096 2406
1097 2406
1098 2406
1099 2406
1100 2406
1101 2406
1102 2406
1103 2406
1104 2406
1105 2406
1106 2406
1107 2406
1108 2406
1109 2406
1110 2406
1111 2406
1112 2406
1113 2406
1114 2406
1115 2406
1116 2406
1117 2406
1118 2406
1119 2406
1120 2406
1121 2406
1122 2406
1123 2406
1124 2406
1125 2406
1126 2406
1127 2406
1128 2406
1129 2406
1130 2406
1131 2406
1132 2406
1133 2406
1134 2406
1135 2406
1136 2406
1137 2406
1138 2406
1139 2406
1140 2406
1141 2406
1142 2406
1143 2406
1144 2406
1145 2406
1146 2406
1147 2406
1148 2406
1149 2406
1150 2406
1151 2406
1152 2406
1153 2406
1154 2406
1155 2406
1156 2406
1157 2406
1158 2406
1159 2406
1160 2406
1161 2406
1162 2406
1163 2406
1164 2406
1165 2406
1166 2406
1167 2406
1168 2406
1169 2406
1170 2406
1171 2406
1172 2406
1173 2406
1174 2406
1175 2406
1176 2406
1177 2406
1178 2406
1179 2406
1180 2406
1181 2406
1182 2406
1183 2406
1184 2406
1185 2406
1186 2406
1187 2406
1188 2406
1189 2406
1190 2406
1191 2406
1192 2406
1193 2406
1194 2406
1195 2406
1196 2406
1197 2406
1198 2406
1199 2406
1200 2406
1201 2406
1202 2406
1203 2406
1204 2406
1205 2406
1206 2406
1207 2406
1208 2406
1209 2406
1210 2406
1211 2406
1212 2406
1213 2406
1214 2406
1215 2406
1216 2406
1217 2406
1218 2406
1219 2406
1220 2406
1221 2406
1222 2406
1223 2406
1224 2406
1225 2406
1226 2406
1227 2406
1228 2406
1229 2406
1230 2406
1231 2406
1232 2406
1233 2406
1234 2406
1235 2406
1236 2406
1237 2406
1238 2406
1239 2406
1240 2406
1241 2406
1242 2406
1243 2406
1244 2406
1245 2406
1246 2406
1247 2406
1248 2406
1249 2406
1250 2406
1251 2406
1252 2406
1253 2406
1254 2406
1255 2406
1256 2406
1257 2406
1258 2406
1259 2406
1260 2406
1261 2406
1262 2406
1263 2406
1264 2406
1265 2406
1266 2406
1267 2406
1268 2406
1269 2406
1270 2406
1271 2406
1272 2406
1273 2406
1274 2406
1275 2406
1276 2406
1277 2406
1278 2406
1279 2406
1280 2406
1281 2406
1282 2406
1283 2406
1284 2406
1285 2406
1286 2406
1287 2406
1288 2406
1289 2406
1290 2406
1291 2406
1292 2406
1293 2406
1294 2406
1295 2406
1296 2406
1297 2406
1298 2406
1299 2406
1300 2406
1301 2406
1302 2406
1303 2406
1304 2406
1305 2406
1306 2406
1307 2406
1308 2406
1309 2406
1310 2406
1311 2406
1312 2406
1313 2406
1314 2406
1315 2406
1316 2406
1317 2406
1318 2406
1319 2406
1320 2406
1321 2406
1322 2406
1323 2406
1324 2406
1325 2406
1326 2406
1327 2406
1328 2406
1329 2406
1330 2406
1331 2406
1332 2406
1333 2406
1334 2406
1335 2406
1336 2406
1337 2406
1338 2406
1339 2406
1340 2406
1341 2406
1342 2406
1343 2406
1344 2406
1345 2406
1346 2406
1347 2406
1348 2406
1349 2406
1350 2406
1351 2406
1352 2406
1353 2406
1354 2406
1355 2406
1356 2406
1357 2406
1358 2406
1359 2406
1360 2406
1361 2406
1362 2406
1363 2406
1364 2406
1365 2406
1366 2406
1367 2406
1368 2406
1369 2406
1370 2406
1371 2406
1372 2406
1373 2406
1374 2406
1375 2406
1376 2406
1377 2406
1378 2406
1379 2406
1380 2406
1381 2406
1382 2406
1383 2406
1384 2406
1385 2406
1386 2406
1387 2406
1388 2406
1389 2406
1390 2406
1391 2406
1392 2406
1393 2406
1394 2406
1395 2406
1396 2406
1397 2406
1398 2406
1399 2406
1400 2406
1401 2406
1402 2406
1403 2406
1404 2406
1405 2406
1406 2406
1407 2406
1408 2406
1409 2406
1410 2406
1411 2406
1412 2406
1413 2406
1414 2406
1415 2406
1416 2406
1417 2406
1418 2406
1419 2406
1420 2406
1421 2406
1422 2406
1423 2406
1424 2406
1425 2406
1426 2406
1427 2406
1428 2406
1429 2406
1430 2406
1431 2406
1432 2406
1433 2406
1434 2406
1435 2406
1436 2406
1437 2406
1438 2406
1439 2406
1440 2406
1441 2406
1442 2406
1443 2406
1444 2406
1445 2406
1446 2406
1447 2406
1448 2406
1449 2406
1450 2406
1451 2406
1452 2406
1453 2406
1454 2406
1455 2406
1456 2406
1457 2406
1458 2406
1459 2406
1460 2406
1461 2406
1462 2406
1463 2406
1464 2406
1465 2406
1466 2406
1467 2406
1468 2406
1469 2406
1470 2406
1471 2406
1472 2406
1473 2406
1474 2406
1475 2406
1476 2406
1477 2406
1478 2406
1479 2406
1480 2406
1481 2406
1482 2406
1483 2406
1484 2406
1485 2406
1486 2406
1487 2406
1488 2406
1489 2406
1490 2406
1491 2406
1492 2406
1493 2406
1494 2406
1495 2406
1496 2406
1497 2406
1498 2406
1499 2406
1500 2406
1501 2406
1502 2406
1503 2406
1504 2406
1505 2406
1506 2406
1507 2406
1508 2406
1509 2406
1510 2406
1511 2406
1512 2406
1513 2406
1514 2406
1515 2406
1516 2406
1517 2406
1518 2406
1519 2406
1520 2406
1521 2406
1522 2406
1523 2406
1524 2406
1525 2406
1526 2406
1527 2406
1528 2406
1529 2406
1530 2406
1531 2406
1532 2406
1533 2406
1534 2406
1535 2406
1536 2406
1537 2406
1538 2406
1539 2406
1540 2406
1 2407
1 1597
1 1598
1 1599
1 1600
1 1601
1 1602
1 1603
1 1604
1 1605
1 1606
1 1607
1 1608
1 1609
1 1610
1 1611
1 1612
1 1613
1 1614
1 1615
1 1616
1 1617
1 1618
1 1619
1 1620
1 1621
1 1622
1 1623
1 1624
1 1625
1 1626
1 1627
1 1628
1 1629
1 1630
1 1631
1 1632
1 1633
1 1634
1 1635
1 1636
1 1637
1 1638
1 1639
1 1640
1 1641
1 1642
1 1643
1 1644
1 1645
1 1646
1 1647
1 1648
1 1649
1 1650
1 1651
1 1652
1 1653
1 1654
1 1655
1 1656
1 1657
1 1658
1 1659
1 1660
1 1661
1 1662
1 1663
1 1664
1 1665
1 1666
1 1667
1 1668
1 1669
1 1670
1 1671
1 1672
1 1673
1 1674
1 1675
1 1676
1 1677
1 1678
1 1679
1 1680
1 1681
1 1682
1 1683
1 1684
1 1685
1 1686
1 1687
1 1688
1 1689
1 1690
1 1691
1 1692
1 1693
1 1694
1 1695
1 1696
1 1697
1 1698
1 1699
1 1700
1 1701
1 1702
1 1703
1 1704
1 1705
1 1706
1 1707
1 1708
1 1709
1 1710
1 1711
1 1712
1 1713
1 1714
1 1715
1 1716
1 1717
1 1718
1 1719
1 1720
1 1721
1 1722
1 1723
1 1724
1 1725
1 1726
1 1727
1 1728
1 1729
1 1730
1 1731
1 1732
1 1733
1 1734
1 1735
1 1736
1 1737
1 1738
1 1739
1 1740
1 1741
1 1742
1 1743
1 1744
1 1745
1 1746
1 1747
1 1748
1 1749
1 1750
1 1751
1 1752
1 1753
1 1754
1 1755
1 1756
1 1757
1 1758
1 1759
1 1760
1 1761
1 1762
1 1763
1 1764
1 1765
1 1766
1 1767
1 1768
1 1769
1 1770
1 1771
1 1772
1 1773
1 1774
1 1775
1 1776
1 1777
1 1778
1 1779
1 1780
1 1781
1 1782
1 1783
1 1784
1 1785
1 1786
1 1787
1 1788
1 1789
1 1790
1 1791
1 1792
1 1793
1 1794
1 1795
1 1796
1 1797
1 1798
1 1799
1 1800
1 1801
1 1802
1 1803
1 1804
1 1805
1 1806
1 1807
1 1808
1 1809
1 1810
1 1811
1 1812
1 1813
1 1814
1 1815
1 1816
1 1817
1 1818
1 1819
1 1820
1 1821
1 1822
1 1823
1 1824
1 1825
1 1826
1 1827
1 1828
1 1829
1 1830
1 1831
1 1832
1 1833
1 1834
1 1835
1 1836
1 1837
1 1838
1 1839
1 1840
1 1841
1 1842
1 1843
1 1844
1 1845
1 1846
1 1847
1 1848
1 1849
1 1850
1 1851
1 1852
1 1853
1 1854
1 1855
1 1856
1 1857
1 1858
1 1859
1 1860
1 1861
1 1862
1 1863
1 1864
1 1865
1 1866
1 1867
1 1868
1 1869
1 1870
1 1871
1 1872
1 1873
1 1874
1 1875
1 1876
1 1877
1 1878
1 1879
1 1880
1 1881
1 1882
1 1883
1 1884
1 1885
1 1886
1 1887
1 1888
1 1889
1 1890
1 1891
1 1892
1 1893
1 1894
1 1895
1 1896
1 1897
1 1898
1 1899
1 1900
1 1901
1 1902
1 1903
1 1904
1 1905
1 1906
1 1907
1 1908
1 1909
1 1910
1 1911
1 1912
1 1913
1 1914
1 1915
1 1916
1 1917
1 1918
1 1919
1 1920
1 1921
1 1922
1 1923
1 1924
1 1925
1 1926
1 1927
1 1928
1 1929
1 1930
1 1931
1 1932
1 1933
1 1934
1 1935
1 1936
1 1937
1 1938
1 1939
1 1940
1 1941
1 1942
1 1943
1 1944
1 1945
1 1946
1 1947
1 1948
1 1949
1 1950
1 1951
1 1952
1 1953
1 1954
1 1955
1 1956
1 1957
1 1958
1 1959
1 1960
1 1961
1 1962
1 1963
1 1964
1 1965
1 1966
1 1967
1 1968
1 1969
1 1970
1 1971
1 1972
1 1973
1 1974
1 1975
1 1976
1 1977
1 1978
1 1979
1 1980
1 1981
1 1982
1 1983
1 1984
1 1985
1 1986
1 1987
1 1988
1 1989
1 1990
1 1991
1 1992
1 1993
1 1994
1 1995
1 1996
1 1997
1 1998
1 1999
1 2000
1 2001
1 2002
1 2003
1 2004
1 2005
1 2006
1 2007
1 2008
1 2009
1 2010
1 2011
1 2012
1 2013
1 2014
1 2015
1 2016
1 2017
1 2018
1 2019
1 2020
1 2021
1 2022
1 2023
1 2024
1 2025
1 2026
1 2027
1 2028
1 2029
1 2030
1 2031
1 2032
1 2033
1 2034
1 2035
1 2036
1 2037
1 2038
1 2039
1 2040
1 2041
1 2042
1 2043
1 2044
1 2045
1 2046
1 2047
1 2048
1 2049
1 2050
1 2051
1 2052
1 2053
1 2054
1 2055
1 2056
1 2057
1 2058
1 2059
1 2060
1 2061
1 2062
1 2063
1 2064
1 2065
1 2066
1 2067
1 2068
1 2069
1 2070
1 2071
1 2072
1 2073
1 2074
1 2075
1 2076
1 2077
1 2078
1 2079
1 2080
1 2081
1 2082
1 2083
1 2084
1 2085
1 2086
1 2087
1 2088
1 2089
1 2090
1 2091
1 2092
1 2093
1 2094
1 2095
1 2096
1 2097
1 2098
1 2099
1 2100
1 2101
1 2102
1 2103
1 2104
1 2105
1 2106
1 2107
1 2108
1 2109
1 2110
1 2111
1 2112
1 2113
1 2114
1 2115
1 2116
1 2117
1 2118
1 2119
1 2120
1 2121
1 2122
1 2123
1 2124
1 2125
1 2126
1 2127
1 2128
1 2129
1 2130
1 2131
1 2132
1 2133
1 2134
1 2135
1 2136
1 2137
1 2138
1 2139
1 2140
1 2141
1 2142
1 2143
1 2144
1 2145
1 2146
1 2147
1 2148
1 2149
1 2150
1 2151
1 2152
1 2153
1 2154
1 2155
1 2156
1 2157
1 2158
1 2159
1 2160
1 2161
1 2162
1 2163
1 2164
1 2165
1 2166
1 2167
1 2168
1 2169
1 2170
1 2171
1 2172
1 2173
1 2174
1 2175
1 2176
1 2177
1 2178
1 2179
1 2180
1 2181
1 2182
1 2183
1 2184
1 2185
1 2186
1 2187
1 2188
1 2189
1 2190
1 2191
1 2192
1 2193
1 2194
1 2195
1 2196
1 2197
1 2198
1 2199
1 2200
1 2201
1 2202
1 2203
1 2204
1 2205
1 2206
1 2207
1 2208
1 2209
1 2210
1 2211
1 2212
1 2213
1 2214
1 2215
1 2216
1 2217
1 2218
1 2219
1 2220
1 2221
1 2222
1 2223
1 2224
1 2225
1 2226
1 2227
1 2228
1 2229
1 2230
1 2231
1 2232
1 2233
1 2234
1 2235
1 2236
1 2237
1 2238
1 2239
1 2240
1 2241
1 2242
1 2243
1 2244
1 2245
1 2246
1 2247
1 2248
1 2249
1 2250
1 2251
1 2252
1 2253
1 2254
1 2255
1 2256
1 2257
1 2258
1 2259
1 2260
1 2261
1 2262
1 2263
1 2264
1 2265
1 2266
1 2267
1 2268
1 2269
1 2270
1 2271
1 2272
1 2273
1 2274
1 2275
1 2276
1 2277
1 2278
1 2279
1 2280
1 2281
1 2282
1 2283
1 2284
1 2285
1 2286
1 2287
1 2288
1 2289
1 2290
1 2291
1 2292
1 2293
1 2294
1 2295
1 2296
1 2297
1 2298
1 2299
1 2300
1 2301
1 2302
1 2303
1 2304
1 2305
1 2306
1 2307
1 2308
1 2309
1 2310
1 2311
1 2312
1 2313
1 2314
1 2315
1 2316
1 2317
1 2318
1 2319
1 2320
1 2321
1 2322
1 2323
1 2324
1 2325
1 2326
1 2327
1 2328
1 2329
1 2330
1 2331
1 2332
1 2333
1 2334
1 2335
1 2336
1 2337
1 2338
1 2339
1 2340
1 2341
1 2342
1 2343
1 2344
1 2345
1 2346
1 2347
1 2348
1 2349
1 2350
1 2351
1 2352
1 2353
1 2354
1 2355
1 2356
1 2357
1 2358
1 2359
1 2360
1 2361
1 2362
1 2363
1 2364
1 2365
1 2366
1 2367
1 2368
1 2369
1 2370
1 2371
1 2372
1 2373
1 2374
1 2375
1 2376
1 2377
1 2378
1 2379
1 2380
1 2381
1 2382
1 2383
1 2384
1 2385
1 2386
1 2387
1 2388
1 2389
1 2390
1 2391
1 2392
1 2393
1 2394
1 2395
1 2396
1 2397
1 2398
1 2399
1 2400
1 2401
1 2402
1 2403
1 2404
1 2405
1 2406
1 2408
1 2409
1 2410
1 2411
1 2412
1 2413
1 2414
1 2415
1 2416
1 2417
1 2418
1 2419
1 2420
1 2421
1 2422
1 2423
1 2424
1 2425
1 2426
1 2427
1 2428
1 2429
1 2430
1 2431
1 2432
1 2433
1 2434
1 2435
1 2436
1 2437
1 2438
1 2439
1 2440
1 2441
1 2442
1 2443
1 2444
1 2445
1 2446
1 2447
1 2448
1 2449
1 2450
1 2451
1 2452
1 2453
1 2454
1 2455
1 2456
1 2457
1 2458
1 2459
1 2460
1 2461
1 2462
1 2463
1 2464
1 2465
1 2466
1 2467
1 2468
1 2469
1 2470
1 2471
1 2472
1 2473
1 2474
1 2475
1 2476
1 2477
1 2478
1 2479
1 2480
1 2481
1 2482
1 2483
1 2484
1 2485
1 2486
1 2487
1 2488
1 2489
1 2490
1 2491
1 2492
1 2493
1 2494
1 2495
1 2496
1 2497
1 2498
1 2499
1 2500
1 2501
1 2502
1 2503
1 2504
1 2505
1 2506
1 2507
1 2508
1 2509
1 2510
1 2511
1 2512
1 2513
1 2514
1 2515
1 2516
1 2517
1 2518
1 2519
1 2520
1 2521
1 2522
1 2523
1 2524
1 2525
1 2526
1 2527
1 2528
1 2529
1 2530
1 2531
1 2532
1 2533
1 2534
1 2535
1 2536
1 2537
1 2538
1 2539
1 2540
1 2541
1 2542
1 2543
1 2544
1 2545
1 2546
1 2547
1 2548
1 2549
1 2550
1 2551
1 2552
1 2553
1 2554
1 2555
1 2556
1 2557
1 2558
1 2559
1 2560
1 2561
1 2562
1 2563
1 2564
1 2565
1 2566
1 2567
1 2568
1 2569
1 2570
1 2571
1 2572
1 2573
1 2574
1 2575
1 2576
1 2577
1 2578
1 2579
1 2580
1 2581
1 2582
1 2583
1 2584
1 2585
1 2586
1 2587
1 2588
1 2589
1 2590
1 2591
1 2592
1 2593
1 2594
1 2595
1 2596
1 2597
1 2598
1 2599
1 2600
1 2601
1 2602
1 2603
1 2604
1 2606
1 2607
1 2608
1 2609
1 2610
1 2611
1 2612
1 2613
1 2614
1 2615
1 2616
1 2617
1 2618
1 2619
1 2620
1 2621
1 2622
1 2623
1 2624
1 2625
1 2626
1 2627
1 2628
1 2629
1 2630
1 2631
1 2632
1 2633
1 2634
1 2635
1 2636
1 2637
1 2638
1 2639
1 2640
1 2641
1 2642
1 2643
1 2644
1 2645
1 2646
1 2647
1 2648
1 2649
1 2650
1 2651
1 2652
1 2653
1 2654
1 2655
1 2656
1 2657
1 2658
1 2659
1 2660
1 2661
1 2662
1 2663
1 2664
1 2665
1 2666
1 2667
1 2668
1 2669
1 2670
1 2671
1 2672
1 2673
1 2674
1 2675
1 2676
1 2677
1 2678
1 2679
1 2680
1 2681
1 2682
1 2683
1 2684
1 2685
1 2686
1 2687
1 2688
1 2689
1 2690
1 2691
1 2692
1 2693
1 2694
1 2695
1 2696
1 2697
1 2698
1 2699
1 2700
1 2701
1 2702
1 2703
1 2704
1 2705
1 2706
1 2707
1 2708
1 2709
1 2710
1 2711
1 2712
1 2713
1 2714
1 2715
1 2716
1 2717
1 2718
1 2719
1 2720
1 2721
1 2722
1 2723
1 2724
1 2725
1 2726
1 2727
1 2728
1 2729
1 2730
1 2731
1 2732
1 2733
1 2734
1 2735
1 2736
1 2737
1 2738
1 2739
1 2740
1 2741
1 2742
1 2743
1 2744
1 2745
1 2746
1 2747
1 2748
1 2749
1 2750
1 2751
1 2752
1 2753
1 2754
1 2755
1 2756
1 2757
1 2758
1 2759
1 2760
1 2761
1 2762
1 2763
1 2764
1 2765
1 2766
1 2767
1 2768
1 2769
1 2770
1 2771
1 2772
1 2773
1 2774
1 2775
1 2776
1 2777
1 2778
1 2779
1 2780
1 2781
1 2782
1 2783
1 2784
1 2785
1 2786
1 2787
1 2788
1 2789
1 2790
1 2791
1 2792
1 2793
1 2794
1 2795
1 2796
1 2797
1 2798
1 2799
1 2800
1 2801
1 2802
1 2803
1 2804
1 2805
1 2806
1 2807
1 2808
1 2809
1 2810
1 2811
1 2812
1 2813
1 2814
1 2815
1 2816
1 2817
1 2818
1 2819
1 2820
1 2821
1 2822
1 2823
1 2824
1 2825
1 2826
1 2827
1 2828
1 2829
1 2830
1 2831
1 2832
1 2833
1 2834
1 2835
1 2836
1 2837
1 2838
1 2839
1 2840
1 2841
1 2842
1 2843
1 2844
1 2845
1 2846
1 2847
1 2848
1 2849
1 2850
1 2851
1 2852
1 2853
1 2854
1 2855
1 2856
1 2857
1 2858
1 2859
1 2860
1 2861
1 2862
1 2863
1 2864
1 2865
1 2866
1 2867
1 2868
1 2869
1 2870
1 2871
1 2872
1 2873
1 2874
1 2875
1 2876
1 2877
1 2878
1 2879
1 2880
1 2881
1 2882
1 2883
1 2884
1 2885
1 2886
1 2887
1 2888
1 2889
1 2890
1 2891
1 2892
1 2893
1 2894
1 2895
1 2896
1 2897
1 2898
1 2899
1 2900
1 2901
1 2902
1 2903
1 2904
1 2905
1 2906
1 2907
1 2908
1 2909
1 2910
1 2911
1 2912
1 2913
1 2914
1 2915
1 2916
1 2917
1 2918
1 2919
1 2920
1 2921
1 2922
1 2923
1 2924
1 2925
1 2926
1 2927
1 2928
1 2929
1 2930
1 2931
1 2932
1 2933
1 2934
1 2935
1 2936
1 2937
1 2938
1 2939
1 2940
1 2941
1 2942
1 2943
1 2944
1 2945
1 2946
1 2947
1 2948
1 2949
1 2950
1 2951
1 2952
1 2953
1 2954
1 2955
1 2956
1 2957
1 2958
1 2959
1 2960
1 2961
1 2962
1 2963
1 2964
1 2965
1 2966
1 2967
1 2968
1 2969
1 2970
1 2971
1 2972
1 2973
1 2974
1 2975
1 2976
1 2977
1 2978
1 2979
1 2980
1 2981
1 2982
1 2983
1 2984
1 2985
1 2986
1 2987
1 2988
1 2989
1 2990
1 2991
1 2992
1 2993
1 2994
1 2995
1 2996
1 2997
1 2998
1 2999
1 3000
1 3001
1 3002
1 3003
1 3004
1 3005
1 3006
1 3007
1 3008
1 3009
1 3010
1 3011
1 3012
1 3013
1 3014
1 3015
1 3016
1 3017
1 3018
1 3019
1 3020
1 3021
1 3022
1 3023
1 3024
1 3025
1 3026
1 3027
1 3028
1 3029
1 3030
1 3031
1 3032
1 3033
1 3034
1 3035
1 3036
1 3037
1 3038
1 3039
1 3040
1 3041
1 3042
1 3043
1 3044
1 3045
1 3046
1 3047
1 3048
1 3049
1 3050
1 3051
1 3052
1 3053
1 3054
1 3055
1 3056
1 3057
1 3058
1 3059
1 3060
1 3061
1 3062
1 3063
1 3064
1 3065
1 3066
1 3067
1 3068
1 3069
1 3070
1 3071
1 3072
1 3073
1 3074
1 3075
1 3076
1 3077
1 3078
1 3079
1 3080
1 3081
1 3082
1 3083
1 3084
1 3085
1 3086
1 3087
1 3088
1 3089
1 3090
1 3091
1 3092
1 3093
1 3094
1 3095
1 3096
1 3097
1 3098
1 3099
1 3100
1 3101
1 3102
1 3103
1 3104
1 3105
1 3106
1 3107
1 3108
1 3109
1 3110
1 3111
1 3112
1 3113
1 3114
1 3115
1 3116
1 3117
1 3118
1 3119
1 3120
1 3121
1 3122
1 3123
1 3124
1 3125
1 3126
1 3127
1 3128
1 3129
1 3130
1 3131
1 3132
1 3133
1 3134
1 3135
1 3136
1 3137
1 3138
1542 2605
1543 2605
1544 2605
1545 2605
1546 2605
1547 2605
1548 2605
1549 2605
1550 2605
1551 2605
1552 2605
1553 2605
1554 2605
1555 2605
1556 2605
1557 2605
1558 2605
1559 2605
1560 2605
1561 2605
1562 2605
1563 2605
1564 2605
1565 2605
1566 2605
1567 2605
1568 2605
1569 2605
1570 2605
1571 2605
1572 2605
1573 2605
1574 2605
1575 2605
1576 2605
1577 2605
1578 2605
1579 2605
1580 2605
1581 2605
1582 2605
1583 2605
1584 2605
1585 2605
1586 2605
1587 2605
1588 2605
1589 2605
1590 2605
1591 2605
1592 2605
1593 2605
1594 2605
1595 2605
1596 2605
